79 67 3 55 10 58 76 53 72 60 1 42 64 13 69 74 91 87 47 32 25 2 86 85 16 28 56 73 8 52 51 80 37 39 66 40 88 35 44 99 11 17 68 19 21 34 57 92 77 20 4 78 93 75 63 50 89 12 33 94 18 90 84 71 96 83 14 54 43 24 98 49 41 15 29 6 30 5 7 70 61 23 48 36 46 22 95 38 9 97 59 45 82 81 27 0 31 65 62 26